WARNING: for repeatability, setting FPU to use double precision
============================[ Problem Statistics ]=============================
|                                                                             |
|  Number of variables:          7278                                         |
|  Number of clauses:           63935                                         |
|  Parse time:                   0.01 s                                       |
|                                                                             |
c ============================[ Search Statistics ]==============================
c | Conflicts |          ORIGINAL         |          LEARNT          | Progress |
c |           |    Vars  Clauses Literals |    Limit  Clauses Lit/Cl |          |
c ===============================================================================
c Switched to VSIDS.
c ===============================================================================
restarts                  : 231
conflicts                 : 58773          (3304 /sec)
decisions                 : 819291         (0.00 % random) (46058 /sec)
propagations              : 36049589       (2026615 /sec)
conflict literals         : 5285119        (26.07 % deleted)

conflicts w/ DIP found    : 42406          (72.15 % of conflicts)
conflicts w/ dangerous DIP: 0              (0.00 % of conflicts)
conflicts w/ DIP-learning : 21             (0.04 % of conflicts)
decisions on ext vars     : 1190           (0.15 % of decisions)
total ext vars            : 13          
tried delete ext vars     : 0           
deleted ext vars          : 0           
max ext vars              : 13          

Memory used               : 47.00 MB
CPU time                  : 17.7881 s
DIP computation time      : 0.640242 s (3.60 % of total time)
ER_sel time               : 0.084716 s
ER_add time               : 0.000139 s
ER_delC time              : 0 s
ER_delV time              : 0 s
ER_sub time               : 0.090499 s
ER_stat time              : 0 s

SATISFIABLE
